# Objective value = 1.9738640163466732e+03
x[0] 1
x[1] 1
x[2] 1
x[3] 1
x[4] 1
x[5] 1
x[6] 0
x[7] 1
x[8] 0
x[9] 1
x[10] 1
x[11] 0
x[12] 1
x[13] 0
x[14] 0
x[15] 1
x[16] 1
x[17] 0
x[18] 1
x[19] 1
x[20] 1
x[21] 0
x[22] 1
x[23] 1
x[24] 0
x[25] 1
x[26] 1
x[27] 1
x[28] 1
x[29] 0
x[30] 0
x[31] 1
x[32] 0
x[33] 0
x[34] 1
x[35] 0
x[36] 1
x[37] 1
x[38] 0
x[39] 0
x[40] 1
x[41] 0
x[42] 0
x[43] 0
x[44] 1
x[45] 1
x[46] 0
x[47] 1
x[48] 1
x[49] 0
x[50] 0
x[51] 0
x[52] 1
x[53] 1
x[54] 1
x[55] 1
x[56] 1
x[57] 1
x[58] 0
x[59] 1
x[60] 0
x[61] 0
x[62] 0
x[63] 0
x[64] 1
x[65] 0
x[66] 1
x[67] 1
x[68] 0
x[69] 0
x[70] 1
x[71] 1
x[72] 1
x[73] 0
x[74] 1
x[75] 1
x[76] 1
x[77] 1
x[78] 0
x[79] 0
x[80] 0
x[81] 0
x[82] 0
x[83] 1
x[84] 0
x[85] 1
x[86] 1
x[87] 1
x[88] 0
x[89] 1
x[90] 0
x[91] 1
x[92] 0
x[93] 1
x[94] 1
x[95] 1
x[96] 0
x[97] 1
x[98] 0
x[99] 0
x[100] 0
x[101] 0
x[102] 1
x[103] 0
x[104] 0
x[105] 1
x[106] 0
x[107] 1
x[108] 0
x[109] 1
x[110] 0
x[111] 0
x[112] 0
x[113] 1
x[114] 1
x[115] 1
x[116] 1
x[117] 1
x[118] 0
x[119] 0
x[120] 0
x[121] 1
x[122] 0
x[123] 1
x[124] 0
x[125] 1
x[126] 1
x[127] 1
x[128] 1
x[129] 0
x[130] 1
x[131] 1
x[132] 0
x[133] 1
x[134] 1
x[135] 1
x[136] 1
x[137] 1
x[138] 1
x[139] 0
x[140] 0
x[141] 1
x[142] 0
x[143] 0
x[144] 0
x[145] 0
x[146] 1
x[147] 1
x[148] 1
x[149] 1
x[150] 1
x[151] 0
x[152] 1
x[153] 0
x[154] 0
x[155] 0
x[156] 0
x[157] 1
x[158] 1
x[159] 0
x[160] 0
x[161] 1
x[162] 0
x[163] 1
x[164] 1
x[165] 1
x[166] 1
x[167] 1
x[168] 1
x[169] 1
x[170] 1
x[171] 1
x[172] 0
x[173] 0
x[174] 1
x[175] 1
x[176] 1
x[177] 1
x[178] 0
x[179] 0
x[180] 1
x[181] 0
x[182] 0
x[183] 1
x[184] 0
x[185] 1
x[186] 0
x[187] 1
x[188] 1
x[189] 0
x[190] 0
x[191] 1
x[192] 0
x[193] 1
x[194] 1
x[195] 1
x[196] 1
x[197] 1
x[198] 0
x[199] 0
x[200] 1
x[201] 0
x[202] 1
x[203] 0
x[204] 0
x[205] 0
x[206] 0
x[207] 0
x[208] 0
x[209] 0
x[210] 0
x[211] 0
x[212] 1
x[213] 1
x[214] 0
x[215] 1
x[216] 0
x[217] 0
x[218] 1
x[219] 0
x[220] 0
x[221] 0
x[222] 1
x[223] 0
x[224] 1
x[225] 0
x[226] 1
x[227] 0
x[228] 0
x[229] 1
x[230] 0
x[231] 0
x[232] 0
x[233] 0
x[234] 0
x[235] 1
x[236] 1
x[237] 1
x[238] 1
x[239] 1
x[240] 0
x[241] 0
x[242] 1
x[243] 0
x[244] 0
x[245] 1
x[246] 1
x[247] 1
x[248] 1
x[249] 0
x[250] 1
x[251] 1
x[252] 1
x[253] 0
x[254] 1
x[255] 1
x[256] 1
x[257] 1
x[258] 1
x[259] 1
x[260] 0
x[261] 0
x[262] 0
x[263] 0
x[264] 1
x[265] 0
x[266] 1
x[267] 0
x[268] 0
x[269] 0
x[270] 0
x[271] 0
x[272] 1
x[273] 0
x[274] 0
x[275] 0
x[276] 1
x[277] 1
x[278] 0
x[279] 1
x[280] 1
x[281] 1
x[282] 1
x[283] 0
x[284] 1
x[285] 1
x[286] 1
x[287] 0
x[288] 1
x[289] 0
x[290] 1
x[291] 1
x[292] 1
x[293] 1
x[294] 1
x[295] 1
x[296] 1
x[297] 1
x[298] 0
x[299] 0
x[300] 0
x[301] 0
x[302] 1
x[303] 0
x[304] 1
x[305] 1
x[306] 0
x[307] 0
x[308] 1
x[309] 1
x[310] 1
x[311] 1
x[312] 1
x[313] 0
x[314] 1
x[315] 1
x[316] 1
x[317] 1
x[318] 0
x[319] 1
x[320] 0
x[321] 0
x[322] 1
x[323] 0
x[324] 1
x[325] 1
x[326] 1
x[327] 0
x[328] 1
x[329] 1
x[330] 1
x[331] 1
x[332] 0
x[333] 1
x[334] 0
x[335] 1
x[336] 1
x[337] 1
x[338] 1
x[339] 0
x[340] 1
x[341] 0
x[342] 0
x[343] 1
x[344] 1
x[345] 1
x[346] 1
x[347] 1
x[348] 1
x[349] 0
x[350] 1
x[351] 0
x[352] 1
x[353] 1
x[354] 1
x[355] 0
x[356] 1
x[357] 1
x[358] 0
x[359] 0
x[360] 1
x[361] 1
x[362] 1
x[363] 0
x[364] 1
x[365] 1
x[366] 1
x[367] 1
x[368] 1
x[369] 1
x[370] 1
x[371] 0
x[372] 1
x[373] 1
x[374] 0
x[375] 1
x[376] 1
x[377] 1
x[378] 0
x[379] 1
x[380] 0
x[381] 0
x[382] 1
x[383] 0
x[384] 0
x[385] 0
x[386] 0
x[387] 0
x[388] 0
x[389] 1
x[390] 1
x[391] 1
x[392] 0
x[393] 0
x[394] 0
x[395] 0
x[396] 0
x[397] 1
x[398] 1
x[399] 1
x[400] 1
x[401] 1
x[402] 1
x[403] 1
x[404] 1
x[405] 1
x[406] 1
x[407] 1
x[408] 1
x[409] 0
x[410] 0
x[411] 0
x[412] 1
x[413] 0
x[414] 0
x[415] 0
x[416] 0
x[417] 0
x[418] 1
x[419] 1
x[420] 0
x[421] 1
x[422] 0
x[423] 1
x[424] 0
x[425] 0
x[426] 1
x[427] 1
x[428] 0
x[429] 0
x[430] 0
x[431] 1
x[432] 0
x[433] 0
x[434] 1
x[435] 1
x[436] 0
x[437] 0
x[438] 0
x[439] 0
x[440] 0
x[441] 0
x[442] 1
x[443] 0
x[444] 0
x[445] 0
x[446] 1
x[447] 1
x[448] 0
x[449] 1
x[450] 1
x[451] 1
x[452] 1
x[453] 1
x[454] 0
x[455] 0
x[456] 1
x[457] 1
x[458] 1
x[459] 0
x[460] 1
x[461] 0
x[462] 1
x[463] 0
x[464] 1
x[465] 0
x[466] 0
x[467] 1
x[468] 1
x[469] 1
x[470] 1
x[471] 1
x[472] 0
x[473] 0
x[474] 0
x[475] 1
x[476] 0
x[477] 0
x[478] 0
x[479] 1
x[480] 1
x[481] 1
x[482] 0
x[483] 0
x[484] 1
x[485] 0
x[486] 0
x[487] 0
x[488] 1
x[489] 0
x[490] 1
x[491] 1
x[492] 0
x[493] 0
x[494] 1
x[495] 0
x[496] 1
x[497] 1
x[498] 0
x[499] 0
x[500] 1
x[501] 0
x[502] 1
x[503] 1
x[504] 1
x[505] 1
x[506] 0
x[507] 1
x[508] 0
x[509] 1
x[510] 0
x[511] 0
x[512] 0
x[513] 0
x[514] 1
x[515] 0
x[516] 1
x[517] 0
x[518] 1
x[519] 0
x[520] 0
x[521] 0
x[522] 0
x[523] 1
x[524] 0
x[525] 0
x[526] 1
x[527] 1
x[528] 1
x[529] 1
x[530] 1
x[531] 1
x[532] 1
x[533] 1
x[534] 1
x[535] 1
x[536] 0
x[537] 0
x[538] 1
x[539] 0
x[540] 0
x[541] 0
x[542] 0
x[543] 0
x[544] 1
x[545] 0
x[546] 1
x[547] 0
x[548] 1
x[549] 1
x[550] 1
x[551] 1
x[552] 1
x[553] 1
x[554] 0
x[555] 1
x[556] 0
x[557] 0
x[558] 1
x[559] 0
x[560] 1
x[561] 1
x[562] 1
x[563] 0
x[564] 1
x[565] 0
x[566] 0
x[567] 0
x[568] 1
x[569] 1
x[570] 0
x[571] 0
x[572] 0
x[573] 1
x[574] 0
x[575] 0
x[576] 1
x[577] 0
x[578] 1
x[579] 0
x[580] 1
x[581] 1
x[582] 1
x[583] 1
x[584] 1
x[585] 0
x[586] 1
x[587] 1
x[588] 0
x[589] 1
x[590] 1
x[591] 0
x[592] 1
x[593] 1
x[594] 1
x[595] 0
x[596] 0
x[597] 1
x[598] 0
x[599] 0
x[600] 0
x[601] 1
x[602] 1
x[603] 0
x[604] 0
x[605] 1
x[606] 0
x[607] 0
x[608] 1
x[609] 1
x[610] 1
x[611] 1
x[612] 0
x[613] 0
x[614] 1
x[615] 1
x[616] 0
x[617] 0
x[618] 0
x[619] 0
x[620] 0
x[621] 1
x[622] 1
x[623] 0
x[624] 1
x[625] 0
x[626] 0
x[627] 0
x[628] 0
x[629] 1
x[630] 0
x[631] 0
x[632] 1
x[633] 1
x[634] 1
x[635] 1
x[636] 0
x[637] 1
x[638] 1
x[639] 0
x[640] 0
x[641] 1
x[642] 1
x[643] 1
x[644] 0
x[645] 1
x[646] 0
x[647] 0
x[648] 1
x[649] 1
x[650] 0
x[651] 0
x[652] 1
x[653] 1
x[654] 1
x[655] 1
x[656] 0
x[657] 1
x[658] 0
x[659] 1
x[660] 1
x[661] 1
x[662] 1
x[663] 0
x[664] 1
x[665] 0
x[666] 1
x[667] 1
x[668] 1
x[669] 0
x[670] 1
x[671] 1
x[672] 0
x[673] 0
x[674] 0
x[675] 0
x[676] 0
x[677] 0
x[678] 1
x[679] 0
x[680] 1
x[681] 1
x[682] 1
x[683] 1
x[684] 1
x[685] 1
x[686] 0
x[687] 1
x[688] 0
x[689] 1
x[690] 1
x[691] 1
x[692] 0
x[693] 0
x[694] 1
x[695] 1
x[696] 0
x[697] 1
x[698] 1
x[699] 1
x[700] 0
x[701] 1
x[702] 1
x[703] 1
x[704] 1
x[705] 1
x[706] 0
x[707] 1
x[708] 1
x[709] 1
x[710] 1
x[711] 1
x[712] 1
x[713] 1
x[714] 0
x[715] 1
x[716] 0
x[717] 0
x[718] 1
x[719] 1
x[720] 0
x[721] 1
x[722] 0
x[723] 0
x[724] 0
x[725] 1
x[726] 1
x[727] 0
x[728] 1
x[729] 1
x[730] 0
x[731] 0
x[732] 0
x[733] 1
x[734] 0
x[735] 1
x[736] 1
x[737] 0
x[738] 0
x[739] 0
x[740] 0
x[741] 0
x[742] 1
x[743] 1
x[744] 1
x[745] 1
x[746] 1
x[747] 1
x[748] 0
x[749] 1
x[750] 0
x[751] 0
x[752] 1
x[753] 0
x[754] 0
x[755] 0
x[756] 1
x[757] 0
x[758] 1
x[759] 1
x[760] 0
x[761] 0
x[762] 1
x[763] 1
x[764] 1
x[765] 1
x[766] 1
x[767] 1
x[768] 0
x[769] 0
x[770] 0
x[771] 0
x[772] 1
x[773] 1
x[774] 0
x[775] 0
x[776] 1
x[777] 1
x[778] 1
x[779] 0
x[780] 0
x[781] 0
x[782] 1
x[783] 1
x[784] 1
x[785] 1
x[786] 0
x[787] 0
x[788] 1
x[789] 1
x[790] 1
x[791] 0
x[792] 1
x[793] 1
x[794] 0
x[795] 0
x[796] 0
x[797] 0
x[798] 1
x[799] 0
x[800] 0
x[801] 1
x[802] 1
x[803] 1
x[804] 1
x[805] 1
x[806] 1
x[807] 1
x[808] 1
x[809] 1
x[810] 0
x[811] 1
x[812] 0
x[813] 1
x[814] 1
x[815] 1
x[816] 1
x[817] 1
x[818] 0
x[819] 1
x[820] 1
x[821] 1
x[822] 0
x[823] 1
x[824] 0
x[825] 0
x[826] 1
x[827] 0
x[828] 1
x[829] 0
x[830] 0
x[831] 0
x[832] 0
x[833] 1
x[834] 1
x[835] 1
x[836] 0
x[837] 1
x[838] 1
x[839] 1
x[840] 1
x[841] 1
x[842] 0
x[843] 1
x[844] 1
x[845] 0
x[846] 1
x[847] 1
x[848] 1
x[849] 0
x[850] 0
x[851] 1
x[852] 0
x[853] 0
x[854] 1
x[855] 0
x[856] 0
x[857] 1
x[858] 0
x[859] 1
x[860] 0
x[861] 0
x[862] 1
x[863] 1
x[864] 1
x[865] 0
x[866] 1
x[867] 0
x[868] 0
x[869] 1
x[870] 1
x[871] 1
x[872] 1
x[873] 1
x[874] 0
x[875] 1
x[876] 1
x[877] 1
x[878] 0
x[879] 0
x[880] 1
x[881] 1
x[882] 0
x[883] 0
x[884] 1
x[885] 1
x[886] 0
x[887] 1
x[888] 1
x[889] 1
x[890] 1
x[891] 1
x[892] 1
x[893] 0
x[894] 1
x[895] 0
x[896] 0
x[897] 1
x[898] 0
x[899] 0
x[900] 1
x[901] 0
x[902] 1
x[903] 1
x[904] 0
x[905] 1
x[906] 0
x[907] 0
x[908] 1
x[909] 1
x[910] 0
x[911] 0
x[912] 1
x[913] 1
x[914] 1
x[915] 0
x[916] 0
x[917] 1
x[918] 1
x[919] 0
x[920] 1
x[921] 1
x[922] 1
x[923] 1
x[924] 1
x[925] 1
x[926] 1
x[927] 1
x[928] 0
x[929] 1
x[930] 1
x[931] 1
x[932] 1
x[933] 0
x[934] 0
x[935] 1
x[936] 0
x[937] 1
x[938] 0
x[939] 1
x[940] 1
x[941] 1
x[942] 1
x[943] 1
x[944] 1
x[945] 0
x[946] 0
x[947] 1
x[948] 0
x[949] 0
x[950] 1
x[951] 0
x[952] 1
x[953] 0
x[954] 1
x[955] 0
x[956] 1
x[957] 0
x[958] 0
x[959] 0
x[960] 1
x[961] 1
x[962] 1
x[963] 1
x[964] 0
x[965] 1
x[966] 1
x[967] 0
x[968] 1
x[969] 1
x[970] 1
x[971] 0
x[972] 1
x[973] 1
x[974] 0
x[975] 0
x[976] 0
x[977] 1
x[978] 0
x[979] 0
x[980] 1
x[981] 1
x[982] 1
x[983] 0
x[984] 1
x[985] 1
x[986] 0
x[987] 1
x[988] 0
x[989] 1
x[990] 1
x[991] 0
x[992] 1
x[993] 1
x[994] 0
x[995] 0
x[996] 0
x[997] 1
x[998] 0
x[999] 1
